certificates/rado_a15_c123_N40.drat
-37 -38 6 -40 0
-38 6 -40 0
d -37 -38 6 -40 0
38 6 0
d 38 5 6 0
6 -40 0
d -38 6 -40 0
8 -40 0
-40 0
-10 -8 0
-8 0
5 0
11 0
37 0
-10 0
35 0
13 0
7 0
-23 0
-25 0
-29 0
-31 0
-17 0
-19 0
26 0
20 0
28 0
22 0
32 0
2 0
34 0
4 0
9 0
14 0
16 0
0
